38 26
3 422
4 947
1 330
17 651
9 665
4 33
17 102
19 745
20 401
2 906
8 653
11 943
9 836
15 895
19 90
1 431
25 762
15 563
18 93
9 703
5 588
1 428
14 845
18 17
4 416
12 685
1 262
24 281
1 510
19 134
2 791
24 845
16 396
4 925
18 808
9 779
5 107
1 260
